(set-info :origin "driver benchmark extracted from Microsoft SDV")
(set-logic HORN)
(declare-fun Proc34 (Int Int Int Bool Int) Bool)
(declare-fun Proc24 (Int Int Int Bool Int) Bool)
(declare-fun Proc13 (Int Int Int Bool Int Int) Bool)
(declare-fun Proc1 (Int Int Int Bool Int) Bool)
(declare-fun Proc22 (Int Int Int Bool) Bool)
(declare-fun Proc8 (Int Int Int Bool Int Int) Bool)
(declare-fun Proc23 (Int Int Int Bool Int Int) Bool)
(declare-fun Proc32 (Int Int Int Bool Int) Bool)
(declare-fun Proc40 (Int Int Int Bool Int) Bool)
(declare-fun Proc41 (Int Int Int Bool Int Int Int) Bool)
(declare-fun Proc25 (Int Int Int Bool Int Int) Bool)
(declare-fun Proc37 (Int Int Int Bool Int) Bool)
(declare-fun Proc49 (Int Int Int Bool Int Int Int) Bool)
(declare-fun Proc3 (Int Int Int Bool Int Int) Bool)
(declare-fun Proc5 (Int Int Int Bool Int Int Int Int Int) Bool)
(declare-fun Proc31 (Int Int Int Bool Int) Bool)
(declare-fun Proc43 (Int Int Int Bool Int Int) Bool)
(declare-fun Proc42 (Int Int Int Bool Int) Bool)
(declare-fun Proc26 (Int Int Int Bool Int Int Int Bool Int) Bool)
(declare-fun Proc0 (Int Int Int Bool Int Int) Bool)
(declare-fun Proc9 (Int Int Int Bool Int Int) Bool)
(declare-fun Proc14 (Int Int Int Bool Int Int Int Int) Bool)
(declare-fun Proc4 (Int Int Int Bool Int Int) Bool)
(declare-fun Proc10 (Int Int Int Bool Int Int Int Int) Bool)
(declare-fun Proc27 (Int Int Int Bool Int) Bool)
(declare-fun Proc33 (Int Int Int Bool Int) Bool)
(declare-fun Proc20 (Int Int Int Bool Int Int Int) Bool)
(declare-fun Proc6 (Int Int Int Bool Int) Bool)
(declare-fun Proc7 (Int Int Int Bool Int Int Int Int Int Int Int Int) Bool)
(declare-fun Proc2 (Int Int Int Bool Int Int Int) Bool)
(declare-fun Proc30 (Int Int Int Bool Int) Bool)
(declare-fun Proc51 (Int Int Int Bool Int Bool Int Int Int) Bool)
(declare-fun Proc45 (Int Int Int Bool Int) Bool)
(declare-fun Proc39 (Int Int Int Bool Int) Bool)
(declare-fun Proc47 (Int Int Int Bool Int Int Int Int) Bool)
(declare-fun Proc29 (Int Int Int Bool Int) Bool)
(declare-fun Proc48 (Int Int Int Bool Int Int Int Int Int) Bool)
(declare-fun Proc16 (Int Int Int Bool Int) Bool)
(declare-fun Proc18 (Int Int Int Bool Int Int Int) Bool)
(declare-fun Proc36 (Int Int Int Bool Int) Bool)
(declare-fun Proc38 (Int Int Int Bool Int) Bool)
(declare-fun Proc44 (Int Int Int Bool Int Int) Bool)
(declare-fun Proc11 (Int Int Int Bool Int Int) Bool)
(declare-fun Proc46 (Int Int Int Bool) Bool)
(declare-fun Proc19 (Int Int Int Bool Int) Bool)
(declare-fun Proc17 (Int Int Int Bool Int Int) Bool)
(declare-fun Proc35 (Int Int Int Bool Int) Bool)
(declare-fun Proc15 (Int Int Int Bool Int Int) Bool)
(declare-fun Proc12 (Int Int Int Bool Int) Bool)
(declare-fun Proc50 (Int Int Int Bool) Bool)
(declare-fun Proc21 (Int Int Int Bool) Bool)
(declare-fun Proc28 (Int Int Int Bool Int) Bool)
(assert (forall ((A Int)
         (B Int)
         (C Int)
         (D Int)
         (E Int)
         (F Int)
         (G Int)
         (H Int)
         (I Int)
         (J Int)
         (K Int)
         (L Int)
         (M Int)
         (N Int)
         (O Int)
         (P Int)
         (Q Int)
         (R Int)
         (S Int)
         (T Int)
         (U Int)
         (V Int)
         (W Int)
         (X Int)
         (Y Int)
         (Z Int)
         (A1 Int)
         (B1 Int)
         (C1 Int)
         (D1 Int)
         (E1 Int)
         (F1 Int)
         (G1 Int)
         (H1 Int)
         (I1 Int)
         (J1 Int)
         (K1 Int)
         (L1 Int)
         (M1 Int)
         (N1 Int)
         (O1 Int)
         (P1 Int)
         (Q1 Int)
         (R1 Int)
         (S1 Int)
         (T1 Bool))
  (let ((a!1 (and (= S1 R1) (not (<= Q1 (+ 8 S1)))))
        (a!2 (and (not (<= Q1 R1))
                  (= P1 Q1)
                  (not (<= O1 (+ 12 P1)))
                  (not (<= O1 Q1))
                  (= N1 O1)
                  (not (<= M1 (+ 4 N1)))
                  (not (<= M1 O1))
                  (= L1 M1)
                  (not (<= K1 (+ 84 L1)))
                  (not (<= K1 M1))
                  (= J1 K1)
                  (not (<= I1 (+ 116 J1)))
                  (not (<= I1 K1))
                  (= H1 I1)
                  (not (<= G1 (+ 4 H1)))
                  (not (<= G1 I1))))
        (a!3 (and (not (<= E1 (+ 1 F1))) (not (<= E1 G1))))
        (a!4 (not (Proc5 E1 C1 B1 T1 J1 0 1 1 W)))
        (a!5 (not (Proc7 E1 C1 B1 T1 0 1 0 0 0 32 U T)))
        (a!6 (not (and (not (= R 0)) (= Q (+ 12 R)) (Proc8 T C1 B1 T1 Q N1))))
        (a!7 (not (and (not (= R 0)) (= P (+ 4 R)))))
        (a!8 (not (and (not (= R 0)) (= N (+ 12 R)) (Proc9 T C1 B1 T1 N M))))
        (a!9 (not (Proc7 T C1 B1 T1 0 0 0 0 0 32 L K)))
        (a!10 (not (Proc10 K C1 B1 T1 0 1234 J I))))
  (let ((a!11 (or (= Y 0)
                  (not (Proc2 E1 C1 B1 T1 L1 0 X))
                  (not (Proc3 E1 C1 B1 T1 H1 P1))
                  (not (Proc4 E1 C1 B1 T1 2 N1))
                  a!4
                  (not (Proc6 E1 C1 B1 T1 V))
                  a!5
                  (not (Proc6 T C1 B1 T1 S))
                  a!6
                  a!7
                  (= P 0)
                  (= O 0)
                  a!8
                  (not (Proc4 T C1 B1 T1 31 N1))
                  a!9
                  a!10
                  (not (Proc6 I C1 B1 T1 H))
                  (not (Proc11 G C1 B1 T1 S1 F))
                  (= F 0)
                  (not (Proc4 G C1 B1 T1 31 N1))
                  (not (Proc12 G C1 B1 T1 E))
                  (= A1 0)
                  (not (Proc13 G C1 B1 T1 A1 0))
                  (not (and (= D G) (= C 0)))
                  (not (and (= B C) (= A D)))))
        (a!12 (or (not (= Y 0))
                  (not (Proc3 E1 C1 B1 T1 H1 P1))
                  (not (Proc4 E1 C1 B1 T1 2 N1))
                  a!4
                  (not (Proc6 E1 C1 B1 T1 V))
                  a!5
                  (not (Proc6 T C1 B1 T1 S))
                  a!6
                  a!7
                  (= P 0)
                  (= O 0)
                  a!8
                  (not (Proc4 T C1 B1 T1 31 N1))
                  a!9
                  a!10
                  (not (Proc6 I C1 B1 T1 H))
                  (not (Proc11 G C1 B1 T1 S1 F))
                  (= F 0)
                  (not (Proc4 G C1 B1 T1 31 N1))
                  (not (Proc12 G C1 B1 T1 E))
                  (= A1 0)
                  (not (Proc13 G C1 B1 T1 A1 0))
                  (not (and (= D G) (= C 0)))
                  (not (and (= B C) (= A D))))))
  (let ((a!13 (not (or (not T1)
                       (not a!1)
                       (not a!2)
                       (not (= F1 G1))
                       (not a!3)
                       (= D1 0)
                       (not (Proc0 E1 C1 B1 T1 A1 Z))
                       (not (Proc1 E1 C1 B1 T1 S1))
                       (not (Proc2 E1 C1 B1 T1 L1 0 Y))
                       (and a!11 a!12)))))
    (=> a!13 (Proc14 R1 C1 B1 T1 D1 A1 B A)))))))
(assert (forall ((A Int) (B Int) (C Int) (D Int) (E Int) (F Int) (G Int) (T1 Bool))
  (let ((a!1 (and (or (not (= F 1)) (not (= E F)))
                  (or (not (= F 0)) (not (= E F))))))
  (let ((a!2 (and (or (= G 0) (not (= F 1)) (not (= E F)))
                  (or (not (= G 0)) a!1))))
    (=> (not (or (not T1) a!2)) (Proc2 D C B T1 A G E))))))
(assert (forall ((A Int)
         (B Int)
         (C Int)
         (D Int)
         (E Int)
         (F Int)
         (G Int)
         (H Int)
         (I Int)
         (J Int)
         (K Int)
         (T1 Bool))
  (let ((a!1 (or (not (and (= K J) (= I 0))) (not (and (= H I) (= G K)))))
        (a!2 (and (not (<= E (+ 1 F))) (not (<= E J)))))
  (let ((a!3 (or (not (= F J))
                 (not a!2)
                 (not (and (= K E) (= I F)))
                 (not (and (= H I) (= G K))))))
    (=> (not (or (not T1) (and a!1 a!3))) (Proc10 J D C T1 B A H G))))))
(assert (forall ((A Int) (B Int) (C Int) (D Int) (T1 Bool))
  (=> (not (or (not T1) (= D 0))) (Proc1 C B A T1 D))))
(assert (forall ((A Int) (B Int) (C Int) (D Int) (E Int) (T1 Bool))
  (=> T1 (Proc3 E D C T1 B A))))
(assert (forall ((A Int) (B Int) (C Int) (D Int) (E Int) (F Int) (T1 Bool))
  (let ((a!1 (and (or (not (= F 0)) (not (= E F)))
                  (or (not (= F 1)) (not (= E F))))))
    (=> (not (or (not T1) a!1)) (Proc15 D C B T1 A E)))))
(assert (forall ((A Int) (B Int) (C Int) (D Int) (E Int) (T1 Bool))
  (let ((a!1 (not (or (not T1) (not (= E D))))))
    (=> a!1 (Proc12 C B A T1 E)))))
(assert (forall ((A Int)
         (B Int)
         (C Int)
         (D Int)
         (E Int)
         (F Int)
         (G Int)
         (H Int)
         (I Int)
         (T1 Bool))
  (let ((a!1 (not (or (not T1) (not (= I H))))))
    (=> a!1 (Proc5 G F E T1 D C B A I)))))
(assert (forall ((A Int) (B Int) (C Int) (D Int) (T1 Bool)) (=> T1 (Proc16 D C B T1 A))))
(assert (forall ((A Int)
         (B Int)
         (C Int)
         (D Int)
         (E Int)
         (F Int)
         (G Int)
         (H Int)
         (I Int)
         (J Int)
         (K Int)
         (L Int)
         (M Int)
         (T1 Bool))
  (let ((a!1 (and (not (<= K (+ 1 M))) (not (<= K L)))))
  (let ((a!2 (or (not T1) (not (= M L)) (not a!1) (not (and (= J M) (= I K))))))
    (=> (not a!2) (Proc7 L H G T1 F E D C B A J I))))))
(assert (forall ((A Int)
         (B Int)
         (C Int)
         (D Int)
         (E Int)
         (F Int)
         (G Int)
         (H Int)
         (I Int)
         (T1 Bool))
  (let ((a!1 (and (not (<= G (+ 1 I))) (not (<= G H)))))
  (let ((a!2 (or (not T1)
                 (not (= I H))
                 (not a!1)
                 (not (Proc17 G F E T1 I D))
                 (not (and (= C G) (= B D))))))
    (=> (not a!2) (Proc18 H F E T1 A C B))))))
(assert (forall ((A Int) (B Int) (C Int) (D Int) (E Int) (T1 Bool))
  (let ((a!1 (not (or (not T1) (not (= E 1))))))
    (=> a!1 (Proc17 D C B T1 A E)))))
(assert (forall ((A Int) (B Int) (C Int) (D Int) (T1 Bool))
  (=> false (Proc19 D C B T1 A))))
(assert (forall ((A Int)
         (B Int)
         (C Int)
         (D Int)
         (E Int)
         (F Int)
         (G Int)
         (H Int)
         (I Int)
         (J Int)
         (K Int)
         (L Int)
         (T1 Bool))
  (let ((a!1 (or (not (= G 1))
                 (not (and (= F G) (= E H)))
                 (not (and (= D E) (= C F)))))
        (a!2 (or (= G 1)
                 (not (and (= F G) (= E H)))
                 (not (and (= D E) (= C F)))))
        (a!3 (and (not (<= A (+ 1 B))) (not (<= A K)))))
  (let ((a!4 (or (not (= L 0))
                 (not (= B K))
                 (not a!3)
                 (not (Proc19 A L J T1 B))
                 (not (and (= F J) (= E A)))
                 (not (and (= D E) (= C F))))))
  (let ((a!5 (and (or (= L 0) (not (Proc18 K L J T1 I H G)) (and a!1 a!2)) a!4)))
    (=> (not (or (not T1) a!5)) (Proc20 K L J T1 I D C)))))))
(assert (forall ((A Int) (B Int) (C Int) (T1 Bool)) (=> T1 (Proc21 C B A T1))))
(assert (forall ((A Int) (B Int) (C Int) (T1 Bool)) (=> T1 (Proc22 C B A T1))))
(assert (forall ((A Int) (B Int) (C Int) (D Int) (E Int) (T1 Bool))
  (let ((a!1 (or (not T1) (not (and (= E 0) (= D 0))))))
    (=> (not a!1) (Proc23 C B A T1 E D)))))
(assert (forall ((A Int)
         (B Int)
         (C Int)
         (D Int)
         (E Int)
         (F Int)
         (G Int)
         (H Int)
         (I Int)
         (J Int)
         (K Int)
         (L Int)
         (M Int)
         (N Int)
         (O Int)
         (T1 Bool)
         (U1 Bool)
         (V1 Bool)
         (W1 Bool))
  (let ((a!1 (not (and (not (<= O 0)) (Proc24 O N M W1 L))))
        (a!2 (not (and (= E G) (= D K) (= C H) (= U1 V1) (= B I)))))
  (let ((a!3 (or (= H 0) (not (and (= G F) (not V1))) a!2))
        (a!4 (or (not (and (= H 0) (= T1 W1)))
                 (not (and (= G A) (= V1 T1)))
                 a!2)))
  (let ((a!5 (and (or (= H 1) (and a!3 a!4)) (or (not (= H 1)) (and a!3 a!4)))))
  (let ((a!6 (not (or (not W1)
                      a!1
                      (not (Proc23 L N M W1 K J))
                      (not (Proc22 L K J W1))
                      (not (Proc21 L K J W1))
                      (not (Proc25 L K J W1 I H))
                      a!5))))
    (=> a!6 (Proc26 O N M W1 E D C U1 B))))))))
(assert (forall ((A Int) (B Int) (C Int) (D Int) (T1 Bool))
  (let ((a!1 (not (or (not T1) (not (= D 0))))))
    (=> a!1 (Proc27 C B A T1 D)))))
(assert (forall ((A Int) (B Int) (C Int) (D Int) (T1 Bool))
  (let ((a!1 (not (or (not T1) (not (= D 1))))))
    (=> a!1 (Proc28 C B A T1 D)))))
(assert (forall ((A Int) (B Int) (C Int) (D Int) (T1 Bool))
  (let ((a!1 (not (or (not T1) (not (= D 1))))))
    (=> a!1 (Proc29 C B A T1 D)))))
(assert (forall ((A Int) (B Int) (C Int) (D Int) (T1 Bool))
  (let ((a!1 (not (or (not T1) (not (= D 0))))))
    (=> a!1 (Proc30 C B A T1 D)))))
(assert (forall ((A Int) (B Int) (C Int) (D Int) (T1 Bool))
  (let ((a!1 (not (or (not T1) (not (= D 1))))))
    (=> a!1 (Proc31 C B A T1 D)))))
(assert (forall ((A Int) (B Int) (C Int) (D Int) (T1 Bool))
  (let ((a!1 (not (or (not T1) (not (= D 0))))))
    (=> a!1 (Proc32 C B A T1 D)))))
(assert (forall ((A Int) (B Int) (C Int) (D Int) (T1 Bool))
  (let ((a!1 (not (or (not T1) (not (= D 0))))))
    (=> a!1 (Proc33 C B A T1 D)))))
(assert (forall ((A Int) (B Int) (C Int) (D Int) (T1 Bool))
  (let ((a!1 (not (or (not T1) (not (= D 0))))))
    (=> a!1 (Proc34 C B A T1 D)))))
(assert (forall ((A Int) (B Int) (C Int) (D Int) (T1 Bool))
  (let ((a!1 (not (or (not T1) (not (= D 0))))))
    (=> a!1 (Proc35 C B A T1 D)))))
(assert (forall ((A Int) (B Int) (C Int) (D Int) (T1 Bool))
  (let ((a!1 (not (or (not T1) (not (= D 0))))))
    (=> a!1 (Proc36 C B A T1 D)))))
(assert (forall ((A Int) (B Int) (C Int) (D Int) (T1 Bool))
  (let ((a!1 (not (or (not T1) (not (= D 0))))))
    (=> a!1 (Proc37 C B A T1 D)))))
(assert (forall ((A Int) (B Int) (C Int) (D Int) (E Int) (T1 Bool))
  (let ((a!1 (or (not T1) (not (= E (- 1073741823))) (not (= D E)))))
    (=> (not a!1) (Proc38 C B A T1 D)))))
(assert (forall ((A Int) (B Int) (C Int) (D Int) (T1 Bool)) (=> T1 (Proc39 D C B T1 A))))
(assert (forall ((A Int) (B Int) (C Int) (D Int) (E Int) (T1 Bool))
  (=> T1 (Proc13 E D C T1 B A))))
(assert (forall ((A Int) (B Int) (C Int) (D Int) (T1 Bool))
  (let ((a!1 (not (or (not T1) (not (= D 0))))))
    (=> a!1 (Proc40 C B A T1 D)))))
(assert (forall ((A Int) (B Int) (C Int) (D Int) (E Int) (F Int) (T1 Bool))
  (let ((a!1 (not (or (not T1) (= F 0) (not (= E D))))))
    (=> a!1 (Proc0 C B A T1 F E)))))
(assert (forall ((A Int) (B Int) (C Int) (D Int) (E Int) (F Int) (G Int) (T1 Bool))
  (let ((a!1 (not (or (not T1) (= G 0) (not (= F E))))))
    (=> a!1 (Proc41 D C B T1 G A F)))))
(assert (forall ((A Int) (B Int) (C Int) (D Int) (E Int) (F Int) (T1 Bool))
  (let ((a!1 (and (or (not (= F 0)) (not (= E F)))
                  (or (not (= F 1)) (not (= E F))))))
    (=> (not (or (not T1) a!1)) (Proc11 D C B T1 A E)))))
(assert (forall ((A Int) (B Int) (C Int) (D Int) (E Int) (T1 Bool))
  (=> (not (or (not T1) (= E 0))) (Proc8 D C B T1 A E))))
(assert (forall ((A Int) (B Int) (C Int) (D Int) (T1 Bool)) (=> T1 (Proc42 D C B T1 A))))
(assert (forall ((A Int) (B Int) (C Int) (D Int) (T1 Bool)) (=> T1 (Proc6 D C B T1 A))))
(assert (forall ((A Int) (B Int) (C Int) (D Int) (E Int) (T1 Bool))
  (=> (not (or (not T1) (= E 0))) (Proc4 D C B T1 A E))))
(assert (forall ((A Int) (B Int) (C Int) (D Int) (E Int) (T1 Bool))
  (=> T1 (Proc9 E D C T1 B A))))
(assert (forall ((A Int) (B Int) (C Int) (D Int) (E Int) (F Int) (T1 Bool))
  (let ((a!1 (not (or (not T1) (not (= F E))))))
    (=> a!1 (Proc43 D C B T1 A F)))))
(assert (forall ((A Int) (B Int) (C Int) (D Int) (E Int) (F Int) (T1 Bool))
  (let ((a!1 (and (or (not (= F 0)) (not (= E F)))
                  (or (not (= F 1)) (not (= E F))))))
    (=> (not (or (not T1) a!1)) (Proc44 D C B T1 A E)))))
(assert (forall ((A Int)
         (B Int)
         (C Int)
         (D Int)
         (E Int)
         (F Int)
         (G Int)
         (H Int)
         (I Int)
         (J Int)
         (K Int)
         (L Int)
         (M Int)
         (N Int)
         (O Int)
         (P Int)
         (Q Int)
         (R Int)
         (S Int)
         (T Int)
         (U Int)
         (T1 Bool))
  (let ((a!1 (not (Proc47 O S R T1 N U M L)))
        (a!2 (not (and (= I K) (= H M) (= G L)))))
  (let ((a!3 (or (not (and (= L 1) (= K J))) a!2)))
  (let ((a!4 (and a!3 (or (= L 1) (= U 0) (not (= K N)) a!2))))
  (let ((a!5 (or (= Q 0)
                 (not (Proc38 T S R T1 P))
                 (not (and (= O T) (= N P)))
                 a!1
                 a!4))
        (a!6 (or (= Q 0)
                 (not (Proc38 T S R T1 F))
                 (not (and (= O T) (= N F)))
                 a!1
                 a!4))
        (a!7 (or (not (Proc38 T S R T1 E)) (not (and (= O T) (= N E))) a!1 a!4))
        (a!8 (or (not (Proc38 T S R T1 D)) (not (and (= O T) (= N D))) a!1 a!4))
        (a!9 (or (= Q 0)
                 (not (Proc14 T S R T1 C U B A))
                 (not (and (= O A) (= N B)))
                 a!1
                 a!4)))
  (let ((a!10 (not (or (not T1)
                       (= U 0)
                       (not (Proc45 T S R T1 U))
                       (= Q 0)
                       (not (Proc46 T S R T1))
                       (and a!5 a!6 a!7 a!8 a!9)))))
    (=> a!10 (Proc48 T S R T1 C U I H G)))))))))
(assert (forall ((A Int) (B Int) (C Int) (D Int) (T1 Bool))
  (=> (not (or (not T1) (= D 0))) (Proc45 C B A T1 D))))
(assert (forall ((A Int) (B Int) (C Int) (D Int) (E Int) (F Int) (T1 Bool))
  (let ((a!1 (not (or (not T1) (not (= F E))))))
    (=> a!1 (Proc49 D C B T1 E A F)))))
(assert (forall ((A Int)
         (B Int)
         (C Int)
         (D Int)
         (E Int)
         (F Int)
         (G Int)
         (H Int)
         (I Int)
         (J Int)
         (K Int)
         (L Int)
         (M Int)
         (N Int)
         (O Int)
         (P Int)
         (Q Int)
         (R Int)
         (S Int)
         (T Int)
         (U Int)
         (V Int)
         (W Int)
         (X Int)
         (T1 Bool))
  (let ((a!1 (or (not (and (= I V) (= H X))) (not (and (= G H) (= F I)))))
        (a!2 (or (not (= A 1))
                 (not (and (= I A) (= H B)))
                 (not (and (= G H) (= F I)))))
        (a!3 (or (= A 1)
                 (not (and (= I A) (= H B)))
                 (not (and (= G H) (= F I)))))
        (a!4 (or (not (= U 0))
                 (not (and (= I V) (= H X)))
                 (not (and (= G H) (= F I))))))
  (let ((a!5 (and a!1
                  (or (= U 0)
                      (not (Proc50 X W V T1))
                      (not (Proc48 X W V T1 E D C B A))
                      (and a!2 a!3))
                  a!4)))
  (let ((a!6 (not (or (not T1)
                      (not (Proc29 X W V T1 U))
                      (not (Proc36 X W V T1 T))
                      (not (Proc30 X W V T1 S))
                      (not (Proc35 X W V T1 R))
                      (not (Proc28 X W V T1 Q))
                      (not (Proc32 X W V T1 P))
                      (not (Proc40 X W V T1 O))
                      (not (Proc37 X W V T1 N))
                      (not (Proc27 X W V T1 M))
                      (not (Proc33 X W V T1 L))
                      (not (Proc34 X W V T1 K))
                      (not (Proc31 X W V T1 J))
                      a!5))))
    (=> a!6 (Proc25 X W V T1 G F)))))))
(assert (forall ((A Int) (B Int) (C Int) (T1 Bool)) (=> T1 (Proc46 C B A T1))))
(assert (forall ((A Int)
         (B Int)
         (C Int)
         (D Int)
         (E Int)
         (F Int)
         (G Int)
         (H Int)
         (I Int)
         (J Int)
         (K Int)
         (T1 Bool))
  (let ((a!1 (and (not (<= I (+ 1 K))) (not (<= I J))))
        (a!2 (or (not (= E 1)) (not (and (= D F) (= C E)))))
        (a!3 (or (= E 1) (not (and (= D F) (= C E))))))
  (let ((a!4 (not (or (not T1)
                      (not (= K J))
                      (not a!1)
                      (not (Proc20 I H G T1 K F E))
                      (and a!2 a!3)))))
    (=> a!4 (Proc47 J H G T1 B A D C))))))
(assert (forall ((A Int) (B Int) (C Int) (T1 Bool)) (=> T1 (Proc50 C B A T1))))
(assert (forall ((A Int)
         (B Int)
         (C Int)
         (D Int)
         (E Int)
         (F Int)
         (G Int)
         (H Int)
         (I Int)
         (J Int)
         (K Int)
         (L Int)
         (M Int)
         (N Int)
         (O Int)
         (P Int)
         (Q Int)
         (R Int)
         (S Int)
         (T Int)
         (U Int)
         (V Int)
         (W Int)
         (X Int)
         (Y Int)
         (Z Int)
         (A1 Int)
         (B1 Int)
         (C1 Int)
         (D1 Int)
         (E1 Int)
         (F1 Int)
         (G1 Int)
         (H1 Int)
         (I1 Int)
         (J1 Int)
         (K1 Int)
         (L1 Int)
         (M1 Int)
         (N1 Int)
         (O1 Int)
         (P1 Int)
         (Q1 Int)
         (R1 Int)
         (S1 Int)
         (T1 Bool)
         (X1 Int)
         (Y1 Int)
         (Z1 Int)
         (A2 Int)
         (B2 Int))
  (let ((a!1 (and (not (<= Z1 (+ 4 B2)))
                  (not (<= Z1 A2))
                  (= Y1 Z1)
                  (not (<= X1 (+ 332 Y1)))))
        (a!2 (and (not (<= X1 Z1))
                  (= S1 X1)
                  (not (<= R1 (+ 4 S1)))
                  (not (<= R1 X1))
                  (= Q1 R1)
                  (not (<= P1 (+ 536 Q1)))
                  (not (<= P1 R1))
                  (= O1 P1)
                  (not (<= N1 (+ 240 O1)))
                  (not (<= N1 P1))
                  (= M1 N1)
                  (not (<= L1 (+ 240 M1)))
                  (not (<= L1 N1))
                  (= K1 L1)
                  (not (<= J1 (+ 240 K1)))
                  (not (<= J1 L1))
                  (= I1 J1)
                  (not (<= H1 (+ 4 I1)))
                  (not (<= H1 J1))
                  (= G1 H1)
                  (not (<= F1 (+ 536 G1)))
                  (not (<= F1 H1))
                  (= E1 F1)
                  (not (<= D1 (+ 332 E1)))
                  (not (<= D1 F1))
                  (= C1 D1)
                  (not (<= B1 (+ 240 C1)))
                  (not (<= B1 D1))
                  (= A1 B1)
                  (not (<= Z (+ 240 A1)))
                  (not (<= Z B1))
                  (= Y Z)
                  (not (<= X (+ 332 Y)))
                  (not (<= X Z))
                  (= W X)
                  (not (<= V (+ 4 W)))
                  (not (<= V X))
                  (= U V)
                  (not (<= T (+ 240 U)))
                  (not (<= T V))
                  (= S T)
                  (not (<= R (+ 240 S)))
                  (not (<= R T))
                  (= Q R)
                  (not (<= P (+ 240 Q)))
                  (not (<= P R))
                  (= O P)
                  (not (<= N (+ 240 O)))
                  (not (<= N P))
                  (= M N)
                  (not (<= L (+ 240 M)))
                  (not (<= L N))
                  (= K L)
                  (not (<= J (+ 40 K)))
                  (not (<= J L))
                  (= I J)
                  (not (<= H (+ 332 I)))
                  (not (<= H J))
                  (= G H)
                  (not (<= F (+ 4 G)))
                  (not (<= F H))
                  (= E F)
                  (not (<= D (+ 40 E)))
                  (not (<= D F)))))
  (let ((a!3 (not (or (not T1)
                      (not (= B2 A2))
                      (not a!1)
                      (not a!2)
                      (not (= C D))))))
    (=> a!3 (Proc24 A2 B A T1 C))))))
(assert (forall ((A Int)
         (B Int)
         (C Int)
         (D Int)
         (E Int)
         (F Int)
         (G Int)
         (H Int)
         (I Int)
         (J Int)
         (K Int)
         (T1 Bool)
         (U1 Bool)
         (V1 Bool))
  (let ((a!1 (or (not V1) (not (and (Proc26 K J I true H G F U1 E) (not U1))))))
    (=> (not a!1) (Proc51 K J I V1 D T1 C B A)))))
(assert (let ((a!1 (exists ((V0 Int)
                    (V1 Int)
                    (V2 Int)
                    (V3 Bool)
                    (V4 Int)
                    (V5 Bool)
                    (V6 Int)
                    (V7 Int)
                    (V8 Int))
             (not (=> (and (Proc51 V0 V1 V2 V3 V4 V5 V6 V7 V8) (not false))
                      false)))))
  (not a!1)))

(check-sat)
